\ Model IP_mmnl
\ LP format - for model browsing. Use MPS format to capture full model detail.
Maximize
  0.4444900543162548 z[0] + 0.104624694483056 z[1] + 0.1897583838756945 z[2]
   + 0.186336589292518 z[3] + 0.0747902780324766 z[4]
Subject To
 xa_0_0: x[0,0] - 175.7 y[0] <= 0
 xb_0_0: x[0,0] + 175.7 y[0] >= 0
 xc_0_0: z[0] + x[0,0] - 175.7 y[0] >= -158.13
 xd_0_0: z[0] + x[0,0] + 175.7 y[0] <= 193.27
 xa_1_0: x[1,0] - 175.7 y[1] <= 0
 xb_1_0: x[1,0] + 175.7 y[1] >= 0
 xc_1_0: z[0] + x[1,0] - 175.7 y[1] >= -158.15
 xd_1_0: z[0] + x[1,0] + 175.7 y[1] <= 193.25
 xa_2_0: x[2,0] - 175.7 y[2] <= 0
 xb_2_0: x[2,0] + 175.7 y[2] >= 0
 xc_2_0: z[0] + x[2,0] - 175.7 y[2] >= -158.59
 xd_2_0: z[0] + x[2,0] + 175.7 y[2] <= 192.81
 xa_3_0: x[3,0] - 175.7 y[3] <= 0
 xb_3_0: x[3,0] + 175.7 y[3] >= 0
 xc_3_0: z[0] + x[3,0] - 175.7 y[3] >= -158.71
 xd_3_0: z[0] + x[3,0] + 175.7 y[3] <= 192.69
 xa_4_0: x[4,0] - 175.7 y[4] <= 0
 xb_4_0: x[4,0] + 175.7 y[4] >= 0
 xc_4_0: z[0] + x[4,0] - 175.7 y[4] >= -159.04
 xd_4_0: z[0] + x[4,0] + 175.7 y[4] <= 192.36
 xa_5_0: x[5,0] - 175.7 y[5] <= 0
 xb_5_0: x[5,0] + 175.7 y[5] >= 0
 xc_5_0: z[0] + x[5,0] - 175.7 y[5] >= -160.04
 xd_5_0: z[0] + x[5,0] + 175.7 y[5] <= 191.36
 xa_6_0: x[6,0] - 175.7 y[6] <= 0
 xb_6_0: x[6,0] + 175.7 y[6] >= 0
 xc_6_0: z[0] + x[6,0] - 175.7 y[6] >= -160.07
 xd_6_0: z[0] + x[6,0] + 175.7 y[6] <= 191.33
 xa_7_0: x[7,0] - 175.7 y[7] <= 0
 xb_7_0: x[7,0] + 175.7 y[7] >= 0
 xc_7_0: z[0] + x[7,0] - 175.7 y[7] >= -160.55
 xd_7_0: z[0] + x[7,0] + 175.7 y[7] <= 190.85
 xa_8_0: x[8,0] - 175.7 y[8] <= 0
 xb_8_0: x[8,0] + 175.7 y[8] >= 0
 xc_8_0: z[0] + x[8,0] - 175.7 y[8] >= -160.61
 xd_8_0: z[0] + x[8,0] + 175.7 y[8] <= 190.79
 xa_9_0: x[9,0] - 175.7 y[9] <= 0
 xb_9_0: x[9,0] + 175.7 y[9] >= 0
 xc_9_0: z[0] + x[9,0] - 175.7 y[9] >= -161.02
 xd_9_0: z[0] + x[9,0] + 175.7 y[9] <= 190.38
 xa_10_0: x[10,0] - 175.7 y[10] <= 0
 xb_10_0: x[10,0] + 175.7 y[10] >= 0
 xc_10_0: z[0] + x[10,0] - 175.7 y[10] >= -161.06
 xd_10_0: z[0] + x[10,0] + 175.7 y[10] <= 190.34
 xa_11_0: x[11,0] - 175.7 y[11] <= 0
 xb_11_0: x[11,0] + 175.7 y[11] >= 0
 xc_11_0: z[0] + x[11,0] - 175.7 y[11] >= -161.13
 xd_11_0: z[0] + x[11,0] + 175.7 y[11] <= 190.27
 xa_12_0: x[12,0] - 175.7 y[12] <= 0
 xb_12_0: x[12,0] + 175.7 y[12] >= 0
 xc_12_0: z[0] + x[12,0] - 175.7 y[12] >= -161.19
 xd_12_0: z[0] + x[12,0] + 175.7 y[12] <= 190.21
 xa_13_0: x[13,0] - 175.7 y[13] <= 0
 xb_13_0: x[13,0] + 175.7 y[13] >= 0
 xc_13_0: z[0] + x[13,0] - 175.7 y[13] >= -162.18
 xd_13_0: z[0] + x[13,0] + 175.7 y[13] <= 189.22
 xa_14_0: x[14,0] - 175.7 y[14] <= 0
 xb_14_0: x[14,0] + 175.7 y[14] >= 0
 xc_14_0: z[0] + x[14,0] - 175.7 y[14] >= -163.06
 xd_14_0: z[0] + x[14,0] + 175.7 y[14] <= 188.34
 xa_15_0: x[15,0] - 175.7 y[15] <= 0
 xb_15_0: x[15,0] + 175.7 y[15] >= 0
 xc_15_0: z[0] + x[15,0] - 175.7 y[15] >= -164.97
 xd_15_0: z[0] + x[15,0] + 175.7 y[15] <= 186.43
 xa_16_0: x[16,0] - 175.7 y[16] <= 0
 xb_16_0: x[16,0] + 175.7 y[16] >= 0
 xc_16_0: z[0] + x[16,0] - 175.7 y[16] >= -165.37
 xd_16_0: z[0] + x[16,0] + 175.7 y[16] <= 186.03
 xa_17_0: x[17,0] - 175.7 y[17] <= 0
 xb_17_0: x[17,0] + 175.7 y[17] >= 0
 xc_17_0: z[0] + x[17,0] - 175.7 y[17] >= -165.95
 xd_17_0: z[0] + x[17,0] + 175.7 y[17] <= 185.45
 xa_18_0: x[18,0] - 175.7 y[18] <= 0
 xb_18_0: x[18,0] + 175.7 y[18] >= 0
 xc_18_0: z[0] + x[18,0] - 175.7 y[18] >= -166.25
 xd_18_0: z[0] + x[18,0] + 175.7 y[18] <= 185.15
 xa_19_0: x[19,0] - 175.7 y[19] <= 0
 xb_19_0: x[19,0] + 175.7 y[19] >= 0
 xc_19_0: z[0] + x[19,0] - 175.7 y[19] >= -166.45
 xd_19_0: z[0] + x[19,0] + 175.7 y[19] <= 184.95
 xa_20_0: x[20,0] - 175.7 y[20] <= 0
 xb_20_0: x[20,0] + 175.7 y[20] >= 0
 xc_20_0: z[0] + x[20,0] - 175.7 y[20] >= -166.53
 xd_20_0: z[0] + x[20,0] + 175.7 y[20] <= 184.87
 xa_21_0: x[21,0] - 175.7 y[21] <= 0
 xb_21_0: x[21,0] + 175.7 y[21] >= 0
 xc_21_0: z[0] + x[21,0] - 175.7 y[21] >= -167.7
 xd_21_0: z[0] + x[21,0] + 175.7 y[21] <= 183.7
 xa_22_0: x[22,0] - 175.7 y[22] <= 0
 xb_22_0: x[22,0] + 175.7 y[22] >= 0
 xc_22_0: z[0] + x[22,0] - 175.7 y[22] >= -167.75
 xd_22_0: z[0] + x[22,0] + 175.7 y[22] <= 183.65
 xa_23_0: x[23,0] - 175.7 y[23] <= 0
 xb_23_0: x[23,0] + 175.7 y[23] >= 0
 xc_23_0: z[0] + x[23,0] - 175.7 y[23] >= -167.81
 xd_23_0: z[0] + x[23,0] + 175.7 y[23] <= 183.59
 xa_24_0: x[24,0] - 175.7 y[24] <= 0
 xb_24_0: x[24,0] + 175.7 y[24] >= 0
 xc_24_0: z[0] + x[24,0] - 175.7 y[24] >= -169.68
 xd_24_0: z[0] + x[24,0] + 175.7 y[24] <= 181.72
 z_0: z[0] - 0.1 x[0,0] - 0.1 x[1,0] - 0.01 x[2,0] - 0.1 x[3,0]
   - 0.01 x[4,0] - 0.05 x[5,0] - 0.35 x[6,0] - 0.43 x[7,0] - 0.4 x[8,0]
   - 0.08 x[9,0] - 0.57 x[10,0] - 0.02 x[11,0] - 0.02 x[12,0]
   - 0.04 x[13,0] - 0.05 x[14,0] - 0.08 x[15,0] - 0.08 x[16,0]
   - 0.03 x[17,0] - 0.96 x[18,0] - 0.01 x[19,0] - 0.04 x[20,0]
   - 0.02 x[21,0] - 1.14 x[22,0] - 0.04 x[23,0] - 1.24 x[24,0] <= 0
 xa_0_1: x[0,1] - 175.7 y[0] <= 0
 xb_0_1: x[0,1] + 175.7 y[0] >= 0
 xc_0_1: z[1] + x[0,1] - 175.7 y[0] >= -158.13
 xd_0_1: z[1] + x[0,1] + 175.7 y[0] <= 193.27
 xa_1_1: x[1,1] - 175.7 y[1] <= 0
 xb_1_1: x[1,1] + 175.7 y[1] >= 0
 xc_1_1: z[1] + x[1,1] - 175.7 y[1] >= -158.15
 xd_1_1: z[1] + x[1,1] + 175.7 y[1] <= 193.25
 xa_2_1: x[2,1] - 175.7 y[2] <= 0
 xb_2_1: x[2,1] + 175.7 y[2] >= 0
 xc_2_1: z[1] + x[2,1] - 175.7 y[2] >= -158.59
 xd_2_1: z[1] + x[2,1] + 175.7 y[2] <= 192.81
 xa_3_1: x[3,1] - 175.7 y[3] <= 0
 xb_3_1: x[3,1] + 175.7 y[3] >= 0
 xc_3_1: z[1] + x[3,1] - 175.7 y[3] >= -158.71
 xd_3_1: z[1] + x[3,1] + 175.7 y[3] <= 192.69
 xa_4_1: x[4,1] - 175.7 y[4] <= 0
 xb_4_1: x[4,1] + 175.7 y[4] >= 0
 xc_4_1: z[1] + x[4,1] - 175.7 y[4] >= -159.04
 xd_4_1: z[1] + x[4,1] + 175.7 y[4] <= 192.36
 xa_5_1: x[5,1] - 175.7 y[5] <= 0
 xb_5_1: x[5,1] + 175.7 y[5] >= 0
 xc_5_1: z[1] + x[5,1] - 175.7 y[5] >= -160.04
 xd_5_1: z[1] + x[5,1] + 175.7 y[5] <= 191.36
 xa_6_1: x[6,1] - 175.7 y[6] <= 0
 xb_6_1: x[6,1] + 175.7 y[6] >= 0
 xc_6_1: z[1] + x[6,1] - 175.7 y[6] >= -160.07
 xd_6_1: z[1] + x[6,1] + 175.7 y[6] <= 191.33
 xa_7_1: x[7,1] - 175.7 y[7] <= 0
 xb_7_1: x[7,1] + 175.7 y[7] >= 0
 xc_7_1: z[1] + x[7,1] - 175.7 y[7] >= -160.55
 xd_7_1: z[1] + x[7,1] + 175.7 y[7] <= 190.85
 xa_8_1: x[8,1] - 175.7 y[8] <= 0
 xb_8_1: x[8,1] + 175.7 y[8] >= 0
 xc_8_1: z[1] + x[8,1] - 175.7 y[8] >= -160.61
 xd_8_1: z[1] + x[8,1] + 175.7 y[8] <= 190.79
 xa_9_1: x[9,1] - 175.7 y[9] <= 0
 xb_9_1: x[9,1] + 175.7 y[9] >= 0
 xc_9_1: z[1] + x[9,1] - 175.7 y[9] >= -161.02
 xd_9_1: z[1] + x[9,1] + 175.7 y[9] <= 190.38
 xa_10_1: x[10,1] - 175.7 y[10] <= 0
 xb_10_1: x[10,1] + 175.7 y[10] >= 0
 xc_10_1: z[1] + x[10,1] - 175.7 y[10] >= -161.06
 xd_10_1: z[1] + x[10,1] + 175.7 y[10] <= 190.34
 xa_11_1: x[11,1] - 175.7 y[11] <= 0
 xb_11_1: x[11,1] + 175.7 y[11] >= 0
 xc_11_1: z[1] + x[11,1] - 175.7 y[11] >= -161.13
 xd_11_1: z[1] + x[11,1] + 175.7 y[11] <= 190.27
 xa_12_1: x[12,1] - 175.7 y[12] <= 0
 xb_12_1: x[12,1] + 175.7 y[12] >= 0
 xc_12_1: z[1] + x[12,1] - 175.7 y[12] >= -161.19
 xd_12_1: z[1] + x[12,1] + 175.7 y[12] <= 190.21
 xa_13_1: x[13,1] - 175.7 y[13] <= 0
 xb_13_1: x[13,1] + 175.7 y[13] >= 0
 xc_13_1: z[1] + x[13,1] - 175.7 y[13] >= -162.18
 xd_13_1: z[1] + x[13,1] + 175.7 y[13] <= 189.22
 xa_14_1: x[14,1] - 175.7 y[14] <= 0
 xb_14_1: x[14,1] + 175.7 y[14] >= 0
 xc_14_1: z[1] + x[14,1] - 175.7 y[14] >= -163.06
 xd_14_1: z[1] + x[14,1] + 175.7 y[14] <= 188.34
 xa_15_1: x[15,1] - 175.7 y[15] <= 0
 xb_15_1: x[15,1] + 175.7 y[15] >= 0
 xc_15_1: z[1] + x[15,1] - 175.7 y[15] >= -164.97
 xd_15_1: z[1] + x[15,1] + 175.7 y[15] <= 186.43
 xa_16_1: x[16,1] - 175.7 y[16] <= 0
 xb_16_1: x[16,1] + 175.7 y[16] >= 0
 xc_16_1: z[1] + x[16,1] - 175.7 y[16] >= -165.37
 xd_16_1: z[1] + x[16,1] + 175.7 y[16] <= 186.03
 xa_17_1: x[17,1] - 175.7 y[17] <= 0
 xb_17_1: x[17,1] + 175.7 y[17] >= 0
 xc_17_1: z[1] + x[17,1] - 175.7 y[17] >= -165.95
 xd_17_1: z[1] + x[17,1] + 175.7 y[17] <= 185.45
 xa_18_1: x[18,1] - 175.7 y[18] <= 0
 xb_18_1: x[18,1] + 175.7 y[18] >= 0
 xc_18_1: z[1] + x[18,1] - 175.7 y[18] >= -166.25
 xd_18_1: z[1] + x[18,1] + 175.7 y[18] <= 185.15
 xa_19_1: x[19,1] - 175.7 y[19] <= 0
 xb_19_1: x[19,1] + 175.7 y[19] >= 0
 xc_19_1: z[1] + x[19,1] - 175.7 y[19] >= -166.45
 xd_19_1: z[1] + x[19,1] + 175.7 y[19] <= 184.95
 xa_20_1: x[20,1] - 175.7 y[20] <= 0
 xb_20_1: x[20,1] + 175.7 y[20] >= 0
 xc_20_1: z[1] + x[20,1] - 175.7 y[20] >= -166.53
 xd_20_1: z[1] + x[20,1] + 175.7 y[20] <= 184.87
 xa_21_1: x[21,1] - 175.7 y[21] <= 0
 xb_21_1: x[21,1] + 175.7 y[21] >= 0
 xc_21_1: z[1] + x[21,1] - 175.7 y[21] >= -167.7
 xd_21_1: z[1] + x[21,1] + 175.7 y[21] <= 183.7
 xa_22_1: x[22,1] - 175.7 y[22] <= 0
 xb_22_1: x[22,1] + 175.7 y[22] >= 0
 xc_22_1: z[1] + x[22,1] - 175.7 y[22] >= -167.75
 xd_22_1: z[1] + x[22,1] + 175.7 y[22] <= 183.65
 xa_23_1: x[23,1] - 175.7 y[23] <= 0
 xb_23_1: x[23,1] + 175.7 y[23] >= 0
 xc_23_1: z[1] + x[23,1] - 175.7 y[23] >= -167.81
 xd_23_1: z[1] + x[23,1] + 175.7 y[23] <= 183.59
 xa_24_1: x[24,1] - 175.7 y[24] <= 0
 xb_24_1: x[24,1] + 175.7 y[24] >= 0
 xc_24_1: z[1] + x[24,1] - 175.7 y[24] >= -169.68
 xd_24_1: z[1] + x[24,1] + 175.7 y[24] <= 181.72
 z_1: z[1] - 0.01 x[0,1] - 0.08 x[1,1] - 0.04 x[2,1] - 0.22 x[3,1]
   - 0.26 x[4,1] - 0.06 x[5,1] - 0.38 x[6,1] - 0.01 x[7,1] - 0.06 x[8,1]
   - 0.47 x[9,1] - 0.09 x[10,1] - 0.56 x[11,1] - 0.64 x[12,1]
   - 0.07 x[13,1] - 0.02 x[14,1] - 0.01 x[15,1] - 0.87 x[16,1]
   - 0.03 x[17,1] - 0.99 x[18,1] - 1.03 x[19,1] - 1.03 x[20,1]
   - 0.04 x[21,1] - 0.09 x[22,1] - 0.05 x[23,1] - 1.22 x[24,1] <= 0
 xa_0_2: x[0,2] - 175.7 y[0] <= 0
 xb_0_2: x[0,2] + 175.7 y[0] >= 0
 xc_0_2: z[2] + x[0,2] - 175.7 y[0] >= -158.13
 xd_0_2: z[2] + x[0,2] + 175.7 y[0] <= 193.27
 xa_1_2: x[1,2] - 175.7 y[1] <= 0
 xb_1_2: x[1,2] + 175.7 y[1] >= 0
 xc_1_2: z[2] + x[1,2] - 175.7 y[1] >= -158.15
 xd_1_2: z[2] + x[1,2] + 175.7 y[1] <= 193.25
 xa_2_2: x[2,2] - 175.7 y[2] <= 0
 xb_2_2: x[2,2] + 175.7 y[2] >= 0
 xc_2_2: z[2] + x[2,2] - 175.7 y[2] >= -158.59
 xd_2_2: z[2] + x[2,2] + 175.7 y[2] <= 192.81
 xa_3_2: x[3,2] - 175.7 y[3] <= 0
 xb_3_2: x[3,2] + 175.7 y[3] >= 0
 xc_3_2: z[2] + x[3,2] - 175.7 y[3] >= -158.71
 xd_3_2: z[2] + x[3,2] + 175.7 y[3] <= 192.69
 xa_4_2: x[4,2] - 175.7 y[4] <= 0
 xb_4_2: x[4,2] + 175.7 y[4] >= 0
 xc_4_2: z[2] + x[4,2] - 175.7 y[4] >= -159.04
 xd_4_2: z[2] + x[4,2] + 175.7 y[4] <= 192.36
 xa_5_2: x[5,2] - 175.7 y[5] <= 0
 xb_5_2: x[5,2] + 175.7 y[5] >= 0
 xc_5_2: z[2] + x[5,2] - 175.7 y[5] >= -160.04
 xd_5_2: z[2] + x[5,2] + 175.7 y[5] <= 191.36
 xa_6_2: x[6,2] - 175.7 y[6] <= 0
 xb_6_2: x[6,2] + 175.7 y[6] >= 0
 xc_6_2: z[2] + x[6,2] - 175.7 y[6] >= -160.07
 xd_6_2: z[2] + x[6,2] + 175.7 y[6] <= 191.33
 xa_7_2: x[7,2] - 175.7 y[7] <= 0
 xb_7_2: x[7,2] + 175.7 y[7] >= 0
 xc_7_2: z[2] + x[7,2] - 175.7 y[7] >= -160.55
 xd_7_2: z[2] + x[7,2] + 175.7 y[7] <= 190.85
 xa_8_2: x[8,2] - 175.7 y[8] <= 0
 xb_8_2: x[8,2] + 175.7 y[8] >= 0
 xc_8_2: z[2] + x[8,2] - 175.7 y[8] >= -160.61
 xd_8_2: z[2] + x[8,2] + 175.7 y[8] <= 190.79
 xa_9_2: x[9,2] - 175.7 y[9] <= 0
 xb_9_2: x[9,2] + 175.7 y[9] >= 0
 xc_9_2: z[2] + x[9,2] - 175.7 y[9] >= -161.02
 xd_9_2: z[2] + x[9,2] + 175.7 y[9] <= 190.38
 xa_10_2: x[10,2] - 175.7 y[10] <= 0
 xb_10_2: x[10,2] + 175.7 y[10] >= 0
 xc_10_2: z[2] + x[10,2] - 175.7 y[10] >= -161.06
 xd_10_2: z[2] + x[10,2] + 175.7 y[10] <= 190.34
 xa_11_2: x[11,2] - 175.7 y[11] <= 0
 xb_11_2: x[11,2] + 175.7 y[11] >= 0
 xc_11_2: z[2] + x[11,2] - 175.7 y[11] >= -161.13
 xd_11_2: z[2] + x[11,2] + 175.7 y[11] <= 190.27
 xa_12_2: x[12,2] - 175.7 y[12] <= 0
 xb_12_2: x[12,2] + 175.7 y[12] >= 0
 xc_12_2: z[2] + x[12,2] - 175.7 y[12] >= -161.19
 xd_12_2: z[2] + x[12,2] + 175.7 y[12] <= 190.21
 xa_13_2: x[13,2] - 175.7 y[13] <= 0
 xb_13_2: x[13,2] + 175.7 y[13] >= 0
 xc_13_2: z[2] + x[13,2] - 175.7 y[13] >= -162.18
 xd_13_2: z[2] + x[13,2] + 175.7 y[13] <= 189.22
 xa_14_2: x[14,2] - 175.7 y[14] <= 0
 xb_14_2: x[14,2] + 175.7 y[14] >= 0
 xc_14_2: z[2] + x[14,2] - 175.7 y[14] >= -163.06
 xd_14_2: z[2] + x[14,2] + 175.7 y[14] <= 188.34
 xa_15_2: x[15,2] - 175.7 y[15] <= 0
 xb_15_2: x[15,2] + 175.7 y[15] >= 0
 xc_15_2: z[2] + x[15,2] - 175.7 y[15] >= -164.97
 xd_15_2: z[2] + x[15,2] + 175.7 y[15] <= 186.43
 xa_16_2: x[16,2] - 175.7 y[16] <= 0
 xb_16_2: x[16,2] + 175.7 y[16] >= 0
 xc_16_2: z[2] + x[16,2] - 175.7 y[16] >= -165.37
 xd_16_2: z[2] + x[16,2] + 175.7 y[16] <= 186.03
 xa_17_2: x[17,2] - 175.7 y[17] <= 0
 xb_17_2: x[17,2] + 175.7 y[17] >= 0
 xc_17_2: z[2] + x[17,2] - 175.7 y[17] >= -165.95
 xd_17_2: z[2] + x[17,2] + 175.7 y[17] <= 185.45
 xa_18_2: x[18,2] - 175.7 y[18] <= 0
 xb_18_2: x[18,2] + 175.7 y[18] >= 0
 xc_18_2: z[2] + x[18,2] - 175.7 y[18] >= -166.25
 xd_18_2: z[2] + x[18,2] + 175.7 y[18] <= 185.15
 xa_19_2: x[19,2] - 175.7 y[19] <= 0
 xb_19_2: x[19,2] + 175.7 y[19] >= 0
 xc_19_2: z[2] + x[19,2] - 175.7 y[19] >= -166.45
 xd_19_2: z[2] + x[19,2] + 175.7 y[19] <= 184.95
 xa_20_2: x[20,2] - 175.7 y[20] <= 0
 xb_20_2: x[20,2] + 175.7 y[20] >= 0
 xc_20_2: z[2] + x[20,2] - 175.7 y[20] >= -166.53
 xd_20_2: z[2] + x[20,2] + 175.7 y[20] <= 184.87
 xa_21_2: x[21,2] - 175.7 y[21] <= 0
 xb_21_2: x[21,2] + 175.7 y[21] >= 0
 xc_21_2: z[2] + x[21,2] - 175.7 y[21] >= -167.7
 xd_21_2: z[2] + x[21,2] + 175.7 y[21] <= 183.7
 xa_22_2: x[22,2] - 175.7 y[22] <= 0
 xb_22_2: x[22,2] + 175.7 y[22] >= 0
 xc_22_2: z[2] + x[22,2] - 175.7 y[22] >= -167.75
 xd_22_2: z[2] + x[22,2] + 175.7 y[22] <= 183.65
 xa_23_2: x[23,2] - 175.7 y[23] <= 0
 xb_23_2: x[23,2] + 175.7 y[23] >= 0
 xc_23_2: z[2] + x[23,2] - 175.7 y[23] >= -167.81
 xd_23_2: z[2] + x[23,2] + 175.7 y[23] <= 183.59
 xa_24_2: x[24,2] - 175.7 y[24] <= 0
 xb_24_2: x[24,2] + 175.7 y[24] >= 0
 xc_24_2: z[2] + x[24,2] - 175.7 y[24] >= -169.68
 xd_24_2: z[2] + x[24,2] + 175.7 y[24] <= 181.72
 z_2: z[2] - 0.03 x[0,2] - 0.05 x[1,2] - 0.13 x[2,2] - 0.2 x[3,2]
   - 0.06 x[4,2] - 0.09 x[5,2] - 0.08 x[6,2] - 0.09 x[7,2] - 0.08 x[8,2]
   - 0.5 x[9,2] - 0.59 x[10,2] - 0.63 x[11,2] - 0.63 x[12,2] - 0.69 x[13,2]
   - 0.72 x[14,2] - 0.79 x[15,2] - 0.84 x[16,2] - 0.06 x[17,2]
   - 0.95 x[18,2] - 0.98 x[19,2] - 1.01 x[20,2] - 1.15 x[21,2]
   - 1.2 x[22,2] - 0.01 x[23,2] - 0.01 x[24,2] <= 0
 xa_0_3: x[0,3] - 175.7 y[0] <= 0
 xb_0_3: x[0,3] + 175.7 y[0] >= 0
 xc_0_3: z[3] + x[0,3] - 175.7 y[0] >= -158.13
 xd_0_3: z[3] + x[0,3] + 175.7 y[0] <= 193.27
 xa_1_3: x[1,3] - 175.7 y[1] <= 0
 xb_1_3: x[1,3] + 175.7 y[1] >= 0
 xc_1_3: z[3] + x[1,3] - 175.7 y[1] >= -158.15
 xd_1_3: z[3] + x[1,3] + 175.7 y[1] <= 193.25
 xa_2_3: x[2,3] - 175.7 y[2] <= 0
 xb_2_3: x[2,3] + 175.7 y[2] >= 0
 xc_2_3: z[3] + x[2,3] - 175.7 y[2] >= -158.59
 xd_2_3: z[3] + x[2,3] + 175.7 y[2] <= 192.81
 xa_3_3: x[3,3] - 175.7 y[3] <= 0
 xb_3_3: x[3,3] + 175.7 y[3] >= 0
 xc_3_3: z[3] + x[3,3] - 175.7 y[3] >= -158.71
 xd_3_3: z[3] + x[3,3] + 175.7 y[3] <= 192.69
 xa_4_3: x[4,3] - 175.7 y[4] <= 0
 xb_4_3: x[4,3] + 175.7 y[4] >= 0
 xc_4_3: z[3] + x[4,3] - 175.7 y[4] >= -159.04
 xd_4_3: z[3] + x[4,3] + 175.7 y[4] <= 192.36
 xa_5_3: x[5,3] - 175.7 y[5] <= 0
 xb_5_3: x[5,3] + 175.7 y[5] >= 0
 xc_5_3: z[3] + x[5,3] - 175.7 y[5] >= -160.04
 xd_5_3: z[3] + x[5,3] + 175.7 y[5] <= 191.36
 xa_6_3: x[6,3] - 175.7 y[6] <= 0
 xb_6_3: x[6,3] + 175.7 y[6] >= 0
 xc_6_3: z[3] + x[6,3] - 175.7 y[6] >= -160.07
 xd_6_3: z[3] + x[6,3] + 175.7 y[6] <= 191.33
 xa_7_3: x[7,3] - 175.7 y[7] <= 0
 xb_7_3: x[7,3] + 175.7 y[7] >= 0
 xc_7_3: z[3] + x[7,3] - 175.7 y[7] >= -160.55
 xd_7_3: z[3] + x[7,3] + 175.7 y[7] <= 190.85
 xa_8_3: x[8,3] - 175.7 y[8] <= 0
 xb_8_3: x[8,3] + 175.7 y[8] >= 0
 xc_8_3: z[3] + x[8,3] - 175.7 y[8] >= -160.61
 xd_8_3: z[3] + x[8,3] + 175.7 y[8] <= 190.79
 xa_9_3: x[9,3] - 175.7 y[9] <= 0
 xb_9_3: x[9,3] + 175.7 y[9] >= 0
 xc_9_3: z[3] + x[9,3] - 175.7 y[9] >= -161.02
 xd_9_3: z[3] + x[9,3] + 175.7 y[9] <= 190.38
 xa_10_3: x[10,3] - 175.7 y[10] <= 0
 xb_10_3: x[10,3] + 175.7 y[10] >= 0
 xc_10_3: z[3] + x[10,3] - 175.7 y[10] >= -161.06
 xd_10_3: z[3] + x[10,3] + 175.7 y[10] <= 190.34
 xa_11_3: x[11,3] - 175.7 y[11] <= 0
 xb_11_3: x[11,3] + 175.7 y[11] >= 0
 xc_11_3: z[3] + x[11,3] - 175.7 y[11] >= -161.13
 xd_11_3: z[3] + x[11,3] + 175.7 y[11] <= 190.27
 xa_12_3: x[12,3] - 175.7 y[12] <= 0
 xb_12_3: x[12,3] + 175.7 y[12] >= 0
 xc_12_3: z[3] + x[12,3] - 175.7 y[12] >= -161.19
 xd_12_3: z[3] + x[12,3] + 175.7 y[12] <= 190.21
 xa_13_3: x[13,3] - 175.7 y[13] <= 0
 xb_13_3: x[13,3] + 175.7 y[13] >= 0
 xc_13_3: z[3] + x[13,3] - 175.7 y[13] >= -162.18
 xd_13_3: z[3] + x[13,3] + 175.7 y[13] <= 189.22
 xa_14_3: x[14,3] - 175.7 y[14] <= 0
 xb_14_3: x[14,3] + 175.7 y[14] >= 0
 xc_14_3: z[3] + x[14,3] - 175.7 y[14] >= -163.06
 xd_14_3: z[3] + x[14,3] + 175.7 y[14] <= 188.34
 xa_15_3: x[15,3] - 175.7 y[15] <= 0
 xb_15_3: x[15,3] + 175.7 y[15] >= 0
 xc_15_3: z[3] + x[15,3] - 175.7 y[15] >= -164.97
 xd_15_3: z[3] + x[15,3] + 175.7 y[15] <= 186.43
 xa_16_3: x[16,3] - 175.7 y[16] <= 0
 xb_16_3: x[16,3] + 175.7 y[16] >= 0
 xc_16_3: z[3] + x[16,3] - 175.7 y[16] >= -165.37
 xd_16_3: z[3] + x[16,3] + 175.7 y[16] <= 186.03
 xa_17_3: x[17,3] - 175.7 y[17] <= 0
 xb_17_3: x[17,3] + 175.7 y[17] >= 0
 xc_17_3: z[3] + x[17,3] - 175.7 y[17] >= -165.95
 xd_17_3: z[3] + x[17,3] + 175.7 y[17] <= 185.45
 xa_18_3: x[18,3] - 175.7 y[18] <= 0
 xb_18_3: x[18,3] + 175.7 y[18] >= 0
 xc_18_3: z[3] + x[18,3] - 175.7 y[18] >= -166.25
 xd_18_3: z[3] + x[18,3] + 175.7 y[18] <= 185.15
 xa_19_3: x[19,3] - 175.7 y[19] <= 0
 xb_19_3: x[19,3] + 175.7 y[19] >= 0
 xc_19_3: z[3] + x[19,3] - 175.7 y[19] >= -166.45
 xd_19_3: z[3] + x[19,3] + 175.7 y[19] <= 184.95
 xa_20_3: x[20,3] - 175.7 y[20] <= 0
 xb_20_3: x[20,3] + 175.7 y[20] >= 0
 xc_20_3: z[3] + x[20,3] - 175.7 y[20] >= -166.53
 xd_20_3: z[3] + x[20,3] + 175.7 y[20] <= 184.87
 xa_21_3: x[21,3] - 175.7 y[21] <= 0
 xb_21_3: x[21,3] + 175.7 y[21] >= 0
 xc_21_3: z[3] + x[21,3] - 175.7 y[21] >= -167.7
 xd_21_3: z[3] + x[21,3] + 175.7 y[21] <= 183.7
 xa_22_3: x[22,3] - 175.7 y[22] <= 0
 xb_22_3: x[22,3] + 175.7 y[22] >= 0
 xc_22_3: z[3] + x[22,3] - 175.7 y[22] >= -167.75
 xd_22_3: z[3] + x[22,3] + 175.7 y[22] <= 183.65
 xa_23_3: x[23,3] - 175.7 y[23] <= 0
 xb_23_3: x[23,3] + 175.7 y[23] >= 0
 xc_23_3: z[3] + x[23,3] - 175.7 y[23] >= -167.81
 xd_23_3: z[3] + x[23,3] + 175.7 y[23] <= 183.59
 xa_24_3: x[24,3] - 175.7 y[24] <= 0
 xb_24_3: x[24,3] + 175.7 y[24] >= 0
 xc_24_3: z[3] + x[24,3] - 175.7 y[24] >= -169.68
 xd_24_3: z[3] + x[24,3] + 175.7 y[24] <= 181.72
 z_3: z[3] - 0.04 x[0,3] - 0.13 x[1,3] - 0.08 x[2,3] - 0.17 x[3,3]
   - 0.29 x[4,3] - 0.03 x[5,3] - 0.07 x[6,3] - 0.44 x[7,3] - 0.43 x[8,3]
   - 0.04 x[9,3] - 0.57 x[10,3] - 0.04 x[11,3] - 0.04 x[12,3]
   - 0.71 x[13,3] - 0.73 x[14,3] - 0.07 x[15,3] - 0.04 x[16,3]
   - 0.08 x[17,3] - 0.91 x[18,3] - x[19,3] - 1.07 x[20,3] - 0.07 x[21,3]
   - 0.08 x[22,3] - 0.1 x[23,3] - 1.23 x[24,3] <= 0
 xa_0_4: x[0,4] - 175.7 y[0] <= 0
 xb_0_4: x[0,4] + 175.7 y[0] >= 0
 xc_0_4: z[4] + x[0,4] - 175.7 y[0] >= -158.13
 xd_0_4: z[4] + x[0,4] + 175.7 y[0] <= 193.27
 xa_1_4: x[1,4] - 175.7 y[1] <= 0
 xb_1_4: x[1,4] + 175.7 y[1] >= 0
 xc_1_4: z[4] + x[1,4] - 175.7 y[1] >= -158.15
 xd_1_4: z[4] + x[1,4] + 175.7 y[1] <= 193.25
 xa_2_4: x[2,4] - 175.7 y[2] <= 0
 xb_2_4: x[2,4] + 175.7 y[2] >= 0
 xc_2_4: z[4] + x[2,4] - 175.7 y[2] >= -158.59
 xd_2_4: z[4] + x[2,4] + 175.7 y[2] <= 192.81
 xa_3_4: x[3,4] - 175.7 y[3] <= 0
 xb_3_4: x[3,4] + 175.7 y[3] >= 0
 xc_3_4: z[4] + x[3,4] - 175.7 y[3] >= -158.71
 xd_3_4: z[4] + x[3,4] + 175.7 y[3] <= 192.69
 xa_4_4: x[4,4] - 175.7 y[4] <= 0
 xb_4_4: x[4,4] + 175.7 y[4] >= 0
 xc_4_4: z[4] + x[4,4] - 175.7 y[4] >= -159.04
 xd_4_4: z[4] + x[4,4] + 175.7 y[4] <= 192.36
 xa_5_4: x[5,4] - 175.7 y[5] <= 0
 xb_5_4: x[5,4] + 175.7 y[5] >= 0
 xc_5_4: z[4] + x[5,4] - 175.7 y[5] >= -160.04
 xd_5_4: z[4] + x[5,4] + 175.7 y[5] <= 191.36
 xa_6_4: x[6,4] - 175.7 y[6] <= 0
 xb_6_4: x[6,4] + 175.7 y[6] >= 0
 xc_6_4: z[4] + x[6,4] - 175.7 y[6] >= -160.07
 xd_6_4: z[4] + x[6,4] + 175.7 y[6] <= 191.33
 xa_7_4: x[7,4] - 175.7 y[7] <= 0
 xb_7_4: x[7,4] + 175.7 y[7] >= 0
 xc_7_4: z[4] + x[7,4] - 175.7 y[7] >= -160.55
 xd_7_4: z[4] + x[7,4] + 175.7 y[7] <= 190.85
 xa_8_4: x[8,4] - 175.7 y[8] <= 0
 xb_8_4: x[8,4] + 175.7 y[8] >= 0
 xc_8_4: z[4] + x[8,4] - 175.7 y[8] >= -160.61
 xd_8_4: z[4] + x[8,4] + 175.7 y[8] <= 190.79
 xa_9_4: x[9,4] - 175.7 y[9] <= 0
 xb_9_4: x[9,4] + 175.7 y[9] >= 0
 xc_9_4: z[4] + x[9,4] - 175.7 y[9] >= -161.02
 xd_9_4: z[4] + x[9,4] + 175.7 y[9] <= 190.38
 xa_10_4: x[10,4] - 175.7 y[10] <= 0
 xb_10_4: x[10,4] + 175.7 y[10] >= 0
 xc_10_4: z[4] + x[10,4] - 175.7 y[10] >= -161.06
 xd_10_4: z[4] + x[10,4] + 175.7 y[10] <= 190.34
 xa_11_4: x[11,4] - 175.7 y[11] <= 0
 xb_11_4: x[11,4] + 175.7 y[11] >= 0
 xc_11_4: z[4] + x[11,4] - 175.7 y[11] >= -161.13
 xd_11_4: z[4] + x[11,4] + 175.7 y[11] <= 190.27
 xa_12_4: x[12,4] - 175.7 y[12] <= 0
 xb_12_4: x[12,4] + 175.7 y[12] >= 0
 xc_12_4: z[4] + x[12,4] - 175.7 y[12] >= -161.19
 xd_12_4: z[4] + x[12,4] + 175.7 y[12] <= 190.21
 xa_13_4: x[13,4] - 175.7 y[13] <= 0
 xb_13_4: x[13,4] + 175.7 y[13] >= 0
 xc_13_4: z[4] + x[13,4] - 175.7 y[13] >= -162.18
 xd_13_4: z[4] + x[13,4] + 175.7 y[13] <= 189.22
 xa_14_4: x[14,4] - 175.7 y[14] <= 0
 xb_14_4: x[14,4] + 175.7 y[14] >= 0
 xc_14_4: z[4] + x[14,4] - 175.7 y[14] >= -163.06
 xd_14_4: z[4] + x[14,4] + 175.7 y[14] <= 188.34
 xa_15_4: x[15,4] - 175.7 y[15] <= 0
 xb_15_4: x[15,4] + 175.7 y[15] >= 0
 xc_15_4: z[4] + x[15,4] - 175.7 y[15] >= -164.97
 xd_15_4: z[4] + x[15,4] + 175.7 y[15] <= 186.43
 xa_16_4: x[16,4] - 175.7 y[16] <= 0
 xb_16_4: x[16,4] + 175.7 y[16] >= 0
 xc_16_4: z[4] + x[16,4] - 175.7 y[16] >= -165.37
 xd_16_4: z[4] + x[16,4] + 175.7 y[16] <= 186.03
 xa_17_4: x[17,4] - 175.7 y[17] <= 0
 xb_17_4: x[17,4] + 175.7 y[17] >= 0
 xc_17_4: z[4] + x[17,4] - 175.7 y[17] >= -165.95
 xd_17_4: z[4] + x[17,4] + 175.7 y[17] <= 185.45
 xa_18_4: x[18,4] - 175.7 y[18] <= 0
 xb_18_4: x[18,4] + 175.7 y[18] >= 0
 xc_18_4: z[4] + x[18,4] - 175.7 y[18] >= -166.25
 xd_18_4: z[4] + x[18,4] + 175.7 y[18] <= 185.15
 xa_19_4: x[19,4] - 175.7 y[19] <= 0
 xb_19_4: x[19,4] + 175.7 y[19] >= 0
 xc_19_4: z[4] + x[19,4] - 175.7 y[19] >= -166.45
 xd_19_4: z[4] + x[19,4] + 175.7 y[19] <= 184.95
 xa_20_4: x[20,4] - 175.7 y[20] <= 0
 xb_20_4: x[20,4] + 175.7 y[20] >= 0
 xc_20_4: z[4] + x[20,4] - 175.7 y[20] >= -166.53
 xd_20_4: z[4] + x[20,4] + 175.7 y[20] <= 184.87
 xa_21_4: x[21,4] - 175.7 y[21] <= 0
 xb_21_4: x[21,4] + 175.7 y[21] >= 0
 xc_21_4: z[4] + x[21,4] - 175.7 y[21] >= -167.7
 xd_21_4: z[4] + x[21,4] + 175.7 y[21] <= 183.7
 xa_22_4: x[22,4] - 175.7 y[22] <= 0
 xb_22_4: x[22,4] + 175.7 y[22] >= 0
 xc_22_4: z[4] + x[22,4] - 175.7 y[22] >= -167.75
 xd_22_4: z[4] + x[22,4] + 175.7 y[22] <= 183.65
 xa_23_4: x[23,4] - 175.7 y[23] <= 0
 xb_23_4: x[23,4] + 175.7 y[23] >= 0
 xc_23_4: z[4] + x[23,4] - 175.7 y[23] >= -167.81
 xd_23_4: z[4] + x[23,4] + 175.7 y[23] <= 183.59
 xa_24_4: x[24,4] - 175.7 y[24] <= 0
 xb_24_4: x[24,4] + 175.7 y[24] >= 0
 xc_24_4: z[4] + x[24,4] - 175.7 y[24] >= -169.68
 xd_24_4: z[4] + x[24,4] + 175.7 y[24] <= 181.72
 z_4: z[4] - 0.04 x[0,4] - 0.03 x[1,4] - 0.05 x[2,4] - 0.1 x[3,4]
   - 0.05 x[4,4] - 0.33 x[5,4] - 0.32 x[6,4] - 0.4 x[7,4] - 0.06 x[8,4]
   - 0.51 x[9,4] - 0.08 x[10,4] - 0.03 x[11,4] - 0.66 x[12,4]
   - 0.73 x[13,4] - 0.03 x[14,4] - 0.05 x[15,4] - 0.02 x[16,4]
   - 0.93 x[17,4] - 0.02 x[18,4] - 0.96 x[19,4] - 1.04 x[20,4]
   - 1.1 x[21,4] - 1.16 x[22,4] - 0.03 x[23,4] - 0.03 x[24,4] <= 0
Bounds
 z[0] <= 175.7
 z[1] <= 175.7
 z[2] <= 175.7
 z[3] <= 175.7
 z[4] <= 175.7
 -infinity <= x[0,0] <= 175.7
 -infinity <= x[0,1] <= 175.7
 -infinity <= x[0,2] <= 175.7
 -infinity <= x[0,3] <= 175.7
 -infinity <= x[0,4] <= 175.7
 -infinity <= x[1,0] <= 175.7
 -infinity <= x[1,1] <= 175.7
 -infinity <= x[1,2] <= 175.7
 -infinity <= x[1,3] <= 175.7
 -infinity <= x[1,4] <= 175.7
 -infinity <= x[2,0] <= 175.7
 -infinity <= x[2,1] <= 175.7
 -infinity <= x[2,2] <= 175.7
 -infinity <= x[2,3] <= 175.7
 -infinity <= x[2,4] <= 175.7
 -infinity <= x[3,0] <= 175.7
 -infinity <= x[3,1] <= 175.7
 -infinity <= x[3,2] <= 175.7
 -infinity <= x[3,3] <= 175.7
 -infinity <= x[3,4] <= 175.7
 -infinity <= x[4,0] <= 175.7
 -infinity <= x[4,1] <= 175.7
 -infinity <= x[4,2] <= 175.7
 -infinity <= x[4,3] <= 175.7
 -infinity <= x[4,4] <= 175.7
 -infinity <= x[5,0] <= 175.7
 -infinity <= x[5,1] <= 175.7
 -infinity <= x[5,2] <= 175.7
 -infinity <= x[5,3] <= 175.7
 -infinity <= x[5,4] <= 175.7
 -infinity <= x[6,0] <= 175.7
 -infinity <= x[6,1] <= 175.7
 -infinity <= x[6,2] <= 175.7
 -infinity <= x[6,3] <= 175.7
 -infinity <= x[6,4] <= 175.7
 -infinity <= x[7,0] <= 175.7
 -infinity <= x[7,1] <= 175.7
 -infinity <= x[7,2] <= 175.7
 -infinity <= x[7,3] <= 175.7
 -infinity <= x[7,4] <= 175.7
 -infinity <= x[8,0] <= 175.7
 -infinity <= x[8,1] <= 175.7
 -infinity <= x[8,2] <= 175.7
 -infinity <= x[8,3] <= 175.7
 -infinity <= x[8,4] <= 175.7
 -infinity <= x[9,0] <= 175.7
 -infinity <= x[9,1] <= 175.7
 -infinity <= x[9,2] <= 175.7
 -infinity <= x[9,3] <= 175.7
 -infinity <= x[9,4] <= 175.7
 -infinity <= x[10,0] <= 175.7
 -infinity <= x[10,1] <= 175.7
 -infinity <= x[10,2] <= 175.7
 -infinity <= x[10,3] <= 175.7
 -infinity <= x[10,4] <= 175.7
 -infinity <= x[11,0] <= 175.7
 -infinity <= x[11,1] <= 175.7
 -infinity <= x[11,2] <= 175.7
 -infinity <= x[11,3] <= 175.7
 -infinity <= x[11,4] <= 175.7
 -infinity <= x[12,0] <= 175.7
 -infinity <= x[12,1] <= 175.7
 -infinity <= x[12,2] <= 175.7
 -infinity <= x[12,3] <= 175.7
 -infinity <= x[12,4] <= 175.7
 -infinity <= x[13,0] <= 175.7
 -infinity <= x[13,1] <= 175.7
 -infinity <= x[13,2] <= 175.7
 -infinity <= x[13,3] <= 175.7
 -infinity <= x[13,4] <= 175.7
 -infinity <= x[14,0] <= 175.7
 -infinity <= x[14,1] <= 175.7
 -infinity <= x[14,2] <= 175.7
 -infinity <= x[14,3] <= 175.7
 -infinity <= x[14,4] <= 175.7
 -infinity <= x[15,0] <= 175.7
 -infinity <= x[15,1] <= 175.7
 -infinity <= x[15,2] <= 175.7
 -infinity <= x[15,3] <= 175.7
 -infinity <= x[15,4] <= 175.7
 -infinity <= x[16,0] <= 175.7
 -infinity <= x[16,1] <= 175.7
 -infinity <= x[16,2] <= 175.7
 -infinity <= x[16,3] <= 175.7
 -infinity <= x[16,4] <= 175.7
 -infinity <= x[17,0] <= 175.7
 -infinity <= x[17,1] <= 175.7
 -infinity <= x[17,2] <= 175.7
 -infinity <= x[17,3] <= 175.7
 -infinity <= x[17,4] <= 175.7
 -infinity <= x[18,0] <= 175.7
 -infinity <= x[18,1] <= 175.7
 -infinity <= x[18,2] <= 175.7
 -infinity <= x[18,3] <= 175.7
 -infinity <= x[18,4] <= 175.7
 -infinity <= x[19,0] <= 175.7
 -infinity <= x[19,1] <= 175.7
 -infinity <= x[19,2] <= 175.7
 -infinity <= x[19,3] <= 175.7
 -infinity <= x[19,4] <= 175.7
 -infinity <= x[20,0] <= 175.7
 -infinity <= x[20,1] <= 175.7
 -infinity <= x[20,2] <= 175.7
 -infinity <= x[20,3] <= 175.7
 -infinity <= x[20,4] <= 175.7
 -infinity <= x[21,0] <= 175.7
 -infinity <= x[21,1] <= 175.7
 -infinity <= x[21,2] <= 175.7
 -infinity <= x[21,3] <= 175.7
 -infinity <= x[21,4] <= 175.7
 -infinity <= x[22,0] <= 175.7
 -infinity <= x[22,1] <= 175.7
 -infinity <= x[22,2] <= 175.7
 -infinity <= x[22,3] <= 175.7
 -infinity <= x[22,4] <= 175.7
 -infinity <= x[23,0] <= 175.7
 -infinity <= x[23,1] <= 175.7
 -infinity <= x[23,2] <= 175.7
 -infinity <= x[23,3] <= 175.7
 -infinity <= x[23,4] <= 175.7
 -infinity <= x[24,0] <= 175.7
 -infinity <= x[24,1] <= 175.7
 -infinity <= x[24,2] <= 175.7
 -infinity <= x[24,3] <= 175.7
 -infinity <= x[24,4] <= 175.7
Binaries
 y[0] y[1] y[2] y[3] y[4] y[5] y[6] y[7] y[8] y[9] y[10] y[11] y[12] y[13]
 y[14] y[15] y[16] y[17] y[18] y[19] y[20] y[21] y[22] y[23] y[24]
End
